results_rootrelaxation/bin018_050_002.srr.sol
solution status: optimal solution found
objective value:                                    0
_var45_                            0.0885054787205875 	(obj:0)
_var79_                            0.0959469393096359 	(obj:0)
_var299_                            0.282218672534173 	(obj:0)
_var668_                           0.0772779502988096 	(obj:0)
_var1111_                          0.0451205122880819 	(obj:0)
_var2657_                           0.145053669985758 	(obj:0)
_var2665_                          0.0675341507454129 	(obj:0)
_var2666_                           0.104805770000615 	(obj:0)
_var2669_                          0.0640817605890161 	(obj:0)
_var2670_                           0.050554814531142 	(obj:0)
_var2676_                           0.330670423720007 	(obj:0)
_var2677_                           0.300594443941846 	(obj:0)
_var2681_                           0.130535308711202 	(obj:0)
_var2683_                          0.0919875354417743 	(obj:0)
_var2684_                          0.0654927725642178 	(obj:0)
_var2685_                           0.251191897418838 	(obj:0)
_var2686_                           0.394327757559722 	(obj:0)
_var2687_                          0.0552833257907284 	(obj:0)
_var2692_                           0.169464553852596 	(obj:0)
_var2695_                          0.0633563274933611 	(obj:0)
_var2696_                            0.19039210427171 	(obj:0)
_var2697_                           0.136327357291996 	(obj:0)
_var2698_                           0.243583561549809 	(obj:0)
_var2699_                           0.109203570092967 	(obj:0)
_var2701_                            0.12833684497819 	(obj:0)
_var2707_                          0.0298116181462705 	(obj:0)
_var2708_                           0.132936007386383 	(obj:0)
_var2711_                           0.138378283314486 	(obj:0)
_var2712_                           0.288756395173132 	(obj:0)
_var2714_                           0.210371357177498 	(obj:0)
_var2717_                           0.126439774822664 	(obj:0)
_var2720_                          0.0971457979347603 	(obj:0)
_var2724_                          0.0373937482462496 	(obj:0)
_var2734_                            0.17909339001484 	(obj:0)
_var2742_                          0.0573606739322044 	(obj:0)
_var2743_                          0.0845198200902252 	(obj:0)
_var2744_                          0.0932400708511423 	(obj:0)
_var2745_                          0.0115043075918763 	(obj:0)
_var2746_                          0.0198484564378776 	(obj:0)
_var2750_                           0.151836620071848 	(obj:0)
_var2756_                          0.0661745558521022 	(obj:0)
_var2757_                           0.293114273222434 	(obj:0)
_var2758_                          0.0528734261483876 	(obj:0)
_var2759_                          0.0551998843418192 	(obj:0)
_var2760_                           0.122033898719014 	(obj:0)
_var2761_                          0.0408708469622626 	(obj:0)
_var2763_                           0.197561959579949 	(obj:0)
_var2765_                           0.223803898564772 	(obj:0)
_var2767_                           0.122107809624488 	(obj:0)
_var2769_                          0.0708573682850852 	(obj:0)
_var2770_                            0.20855915778059 	(obj:0)
_var2779_                          0.0662674140892165 	(obj:0)
_var2782_                          0.0674712340819077 	(obj:0)
_var2783_                           0.184081225200781 	(obj:0)
_var2784_                           0.136587001663575 	(obj:0)
_var2785_                           0.038068021819365 	(obj:0)
_var2786_                           0.182347321966242 	(obj:0)
_var2789_                           0.279962093110212 	(obj:0)
_var2793_                            0.31076875712127 	(obj:0)
_var2795_                          0.0998698320292443 	(obj:0)
_var2797_                           0.154522848656488 	(obj:0)
_var2798_                          0.0918230546228255 	(obj:0)
_var2801_                          0.0298612623371382 	(obj:0)
_var2803_                          0.0544287181451254 	(obj:0)
_var2805_                          0.0927245865281416 	(obj:0)
_var2806_                          0.0850364775232326 	(obj:0)
_var2807_                           0.108113659791484 	(obj:0)
_var2808_                            0.14424174013598 	(obj:0)
_var2809_                           0.297821551336866 	(obj:0)
_var2820_                           0.254225654193134 	(obj:0)
_var2824_                           0.326580533988091 	(obj:0)
_var2826_                          0.0673924769884684 	(obj:0)
_var2828_                           0.189499668338653 	(obj:0)
_var2831_                          0.0645473550974865 	(obj:0)
_var2832_                           0.285563649157608 	(obj:0)
_var2833_                          0.0954051106889711 	(obj:0)
_var2834_                          0.0519948078477246 	(obj:0)
_var2836_                           0.129505309658176 	(obj:0)
_var2838_                          0.0471450584958522 	(obj:0)
_var2839_                          0.0136871483901524 	(obj:0)
_var2840_                           0.149672459879305 	(obj:0)
_var2846_                           0.435348826437344 	(obj:0)
_var2847_                           0.193341017641533 	(obj:0)
_var2848_                          0.0538094044068859 	(obj:0)
_var2851_                          0.0112162830037811 	(obj:0)
_var2852_                          0.0506348700915501 	(obj:0)
_var2853_                           0.176564491336566 	(obj:0)
_var2856_                           0.151536211945448 	(obj:0)
_var2860_                           0.200669459790449 	(obj:0)
_var2862_                           0.143204825207206 	(obj:0)
_var2865_                          0.0785051279887221 	(obj:0)
_var2866_                          0.0741826081233895 	(obj:0)
_var2867_                            0.20006421115244 	(obj:0)
_var2868_                           0.117121741179455 	(obj:0)
_var2869_                           0.132821255769316 	(obj:0)
_var2870_                          0.0868822154369027 	(obj:0)
_var2871_                         0.000400846480619924 	(obj:0)
_var2873_                          0.0542694696075967 	(obj:0)
_var2876_                           0.229397860905911 	(obj:0)
_var2882_                          0.0702311928431336 	(obj:0)
_var2884_                          0.0213426301842336 	(obj:0)
_var2885_                          0.0554871663387447 	(obj:0)
_var2888_                           0.190391173783867 	(obj:0)
_var2889_                          0.0272112550646718 	(obj:0)
_var2892_                           0.200364473077084 	(obj:0)
_var2893_                          0.0945474361727174 	(obj:0)
_var2894_                          0.0996330824995973 	(obj:0)
_var2895_                           0.126188211229482 	(obj:0)
_var2896_                           0.124155283908156 	(obj:0)
_var2899_                         0.00886093232296399 	(obj:0)
_var2902_                          0.0790568454075918 	(obj:0)
_var2903_                          0.0687758646609168 	(obj:0)
_var2906_                            0.12991593754454 	(obj:0)
_var2908_                           0.142122050353306 	(obj:0)
_var2909_                           0.199363976622471 	(obj:0)
_var2911_                          0.0145115443278523 	(obj:0)
_var2912_                          0.0918747948892714 	(obj:0)
_var2915_                            0.18366014301941 	(obj:0)
_var2917_                          0.0758199112902947 	(obj:0)
_var2920_                          0.0947544184534867 	(obj:0)
_var2921_                          0.0108676895428396 	(obj:0)
_var2923_                           0.190040255700662 	(obj:0)
_var2924_                          0.0763222497966343 	(obj:0)
_var2925_                          0.0583629873091087 	(obj:0)
_var2926_                          0.0344275425001111 	(obj:0)
_var2927_                           0.156000286722708 	(obj:0)
_var2929_                         0.00334005081500433 	(obj:0)
_var2932_                          0.0928962156786787 	(obj:0)
_var2935_                          0.0131062456052631 	(obj:0)
_var2936_                          0.0540798056491744 	(obj:0)
_var2937_                          0.0133503326707072 	(obj:0)
_var2938_                          0.0500815507024434 	(obj:0)
_var2939_                          0.0535192996035171 	(obj:0)
_var2940_                           0.145936437994847 	(obj:0)
_var2942_                           0.166342865191683 	(obj:0)
_var2943_                          0.0649752581686573 	(obj:0)
_var2945_                          0.0154406744856303 	(obj:0)
_var2947_                           0.106981183716276 	(obj:0)
_var2949_                          0.0129505215891459 	(obj:0)
_var2952_                          0.0321079552529209 	(obj:0)
_var2953_                          0.0728432551117364 	(obj:0)
_var2955_                         0.000234157569308018 	(obj:0)
_var2958_                           0.027929331750555 	(obj:0)
_var2959_                          0.0124011005559513 	(obj:0)
_var2961_                          0.0691321792214831 	(obj:0)
_var2964_                          0.0150202538797917 	(obj:0)
_var2966_                         0.000407653133806918 	(obj:0)
_var2971_                          0.0225328438185937 	(obj:0)
_var2972_                         0.00547009365450585 	(obj:0)
_var2975_                          0.0279756858979718 	(obj:0)
_var2976_                         0.000261825755333345 	(obj:0)
_var2978_                          0.0135662236187668 	(obj:0)
