results_rootrelaxation/bin018_050_002.srr.log
SCIP version 8.0.3.5 [precision: 8 byte] [memory: block] [mode: optimized] [LP solver: Soplex 6.0.1.3] [GitHash: 438792519e]
Copyright (c) 2002-2023 Zuse Institute Berlin (ZIB)

External libraries: 
  Readline 8.1         GNU library for command line editing (gnu.org/s/readline)
  Soplex 6.0.1.3       Linear Programming Solver developed at Zuse Institute Berlin (soplex.zib.de) [GitHash: 713be0fe]
  CppAD 20180000.0     Algorithmic Differentiation of C++ algorithms developed by B. Bell (github.com/coin-or/CppAD)
  ZLIB 1.2.11          General purpose compression library by J. Gailly and M. Adler (zlib.net)
  bliss 0.77           Computing Graph Automorphism Groups by T. Junttila and P. Kaski (www.tcs.hut.fi/Software/bliss/)

user parameter file <scip.set> not found - using default parameters

srr/relaxation = TRUE

read problem <instances/bin018_050_002.srr>
============

Original problem: 
original problem has 0 variables (0 bin, 0 int, 0 impl, 0 cont) and 170 constraints

presolving:
presolving (1 rounds: 1 fast, 1 medium, 1 exhaustive):
 0 deleted vars, 0 deleted constraints, 0 added constraints, 0 tightened bounds, 0 added holes, 0 changed sides, 0 changed coefficients
 0 implications, 0 cliques
presolved problem has 0 variables (0 bin, 0 int, 0 impl, 0 cont) and 170 constraints
    170 constraints of type <linear>
Presolving Time: 0.00

 time | node  | left  |LP iter|LP it/n|mem/heur|mdpt |vars |cons |rows |cuts |sepa|confs|strbr|  dualbound   | primalbound  |  gap   | compl. 
  0.0s|     1 |     0 |     1 |     - |   922k |   0 |   1 | 170 | 170 |   0 |  0 |   0 |   0 |      --      |      --      |    Inf | unknown
  0.2s|     1 |     0 |  1352 |     - |  7170k |   0 |1603 | 170 | 170 |   0 |  0 |   0 |   0 |      --      |      --      |    Inf | unknown
r 0.8s|     1 |     0 |  6909 |     - |simplero|   0 |2640 | 170 | 170 |   0 |  0 |   0 |   0 |      --      | 3.516690e+01 |    Inf | unknown
r 0.8s|     1 |     0 |  6980 |     - |simplero|   0 |2657 | 170 | 170 |   0 |  0 |   0 |   0 |      --      | 3.407570e+01 |    Inf | unknown
r 0.8s|     1 |     0 |  7077 |     - |simplero|   0 |2674 | 170 | 170 |   0 |  0 |   0 |   0 |      --      | 3.200308e+01 |    Inf | unknown
r 0.9s|     1 |     0 |  7168 |     - |simplero|   0 |2691 | 170 | 170 |   0 |  0 |   0 |   0 |      --      | 2.905193e+01 |    Inf | unknown
r 0.9s|     1 |     0 |  7205 |     - |simplero|   0 |2691 | 170 | 170 |   0 |  0 |   0 |   0 |      --      | 2.888583e+01 |    Inf | unknown
r 0.9s|     1 |     0 |  7212 |     - |simplero|   0 |2691 | 170 | 170 |   0 |  0 |   0 |   0 |      --      | 2.887755e+01 |    Inf | unknown
r 0.9s|     1 |     0 |  7358 |     - |simplero|   0 |2708 | 170 | 170 |   0 |  0 |   0 |   0 |      --      | 2.593837e+01 |    Inf | unknown
r 0.9s|     1 |     0 |  7413 |     - |simplero|   0 |2708 | 170 | 170 |   0 |  0 |   0 |   0 |      --      | 2.577970e+01 |    Inf | unknown
r 0.9s|     1 |     0 |  7424 |     - |simplero|   0 |2708 | 170 | 170 |   0 |  0 |   0 |   0 |      --      | 2.577257e+01 |    Inf | unknown
r 0.9s|     1 |     0 |  7426 |     - |simplero|   0 |2708 | 170 | 170 |   0 |  0 |   0 |   0 |      --      | 2.577239e+01 |    Inf | unknown
r 0.9s|     1 |     0 |  7500 |     - |simplero|   0 |2725 | 170 | 170 |   0 |  0 |   0 |   0 |      --      | 2.418199e+01 |    Inf | unknown
r 0.9s|     1 |     0 |  7605 |     - |simplero|   0 |2725 | 170 | 170 |   0 |  0 |   0 |   0 |      --      | 2.243075e+01 |    Inf | unknown
r 0.9s|     1 |     0 |  7643 |     - |simplero|   0 |2725 | 170 | 170 |   0 |  0 |   0 |   0 |      --      | 2.229306e+01 |    Inf | unknown
 time | node  | left  |LP iter|LP it/n|mem/heur|mdpt |vars |cons |rows |cuts |sepa|confs|strbr|  dualbound   | primalbound  |  gap   | compl. 
r 0.9s|     1 |     0 |  7644 |     - |simplero|   0 |2725 | 170 | 170 |   0 |  0 |   0 |   0 |      --      | 2.229300e+01 |    Inf | unknown
r 0.9s|     1 |     0 |  7792 |     - |simplero|   0 |2742 | 170 | 170 |   0 |  0 |   0 |   0 |      --      | 1.995636e+01 |    Inf | unknown
r 1.0s|     1 |     0 |  7849 |     - |simplero|   0 |2742 | 170 | 170 |   0 |  0 |   0 |   0 |      --      | 1.969435e+01 |    Inf | unknown
r 1.0s|     1 |     0 |  7878 |     - |simplero|   0 |2742 | 170 | 170 |   0 |  0 |   0 |   0 |      --      | 1.963169e+01 |    Inf | unknown
r 1.0s|     1 |     0 |  7894 |     - |simplero|   0 |2742 | 170 | 170 |   0 |  0 |   0 |   0 |      --      | 1.962473e+01 |    Inf | unknown
r 1.0s|     1 |     0 |  8024 |     - |simplero|   0 |2759 | 170 | 170 |   0 |  0 |   0 |   0 |      --      | 1.773724e+01 |    Inf | unknown
r 1.0s|     1 |     0 |  8104 |     - |simplero|   0 |2759 | 170 | 170 |   0 |  0 |   0 |   0 |      --      | 1.725746e+01 |    Inf | unknown
r 1.0s|     1 |     0 |  8113 |     - |simplero|   0 |2759 | 170 | 170 |   0 |  0 |   0 |   0 |      --      | 1.725062e+01 |    Inf | unknown
r 1.0s|     1 |     0 |  8116 |     - |simplero|   0 |2759 | 170 | 170 |   0 |  0 |   0 |   0 |      --      | 1.725051e+01 |    Inf | unknown
r 1.0s|     1 |     0 |  8270 |     - |simplero|   0 |2776 | 170 | 170 |   0 |  0 |   0 |   0 |      --      | 1.601323e+01 |    Inf | unknown
r 1.0s|     1 |     0 |  8351 |     - |simplero|   0 |2776 | 170 | 170 |   0 |  0 |   0 |   0 |      --      | 1.570974e+01 |    Inf | unknown
r 1.0s|     1 |     0 |  8359 |     - |simplero|   0 |2776 | 170 | 170 |   0 |  0 |   0 |   0 |      --      | 1.569886e+01 |    Inf | unknown
r 1.0s|     1 |     0 |  8369 |     - |simplero|   0 |2776 | 170 | 170 |   0 |  0 |   0 |   0 |      --      | 1.569671e+01 |    Inf | unknown
r 1.1s|     1 |     0 |  8513 |     - |simplero|   0 |2793 | 170 | 170 |   0 |  0 |   0 |   0 |      --      | 1.367551e+01 |    Inf | unknown
r 1.1s|     1 |     0 |  8567 |     - |simplero|   0 |2793 | 170 | 170 |   0 |  0 |   0 |   0 |      --      | 1.337471e+01 |    Inf | unknown
 time | node  | left  |LP iter|LP it/n|mem/heur|mdpt |vars |cons |rows |cuts |sepa|confs|strbr|  dualbound   | primalbound  |  gap   | compl. 
r 1.1s|     1 |     0 |  8579 |     - |simplero|   0 |2793 | 170 | 170 |   0 |  0 |   0 |   0 |      --      | 1.335085e+01 |    Inf | unknown
r 1.1s|     1 |     0 |  8747 |     - |simplero|   0 |2810 | 170 | 170 |   0 |  0 |   0 |   0 |      --      | 1.058654e+01 |    Inf | unknown
r 1.1s|     1 |     0 |  8795 |     - |simplero|   0 |2810 | 170 | 170 |   0 |  0 |   0 |   0 |      --      | 1.038633e+01 |    Inf | unknown
r 1.1s|     1 |     0 |  8806 |     - |simplero|   0 |2810 | 170 | 170 |   0 |  0 |   0 |   0 |      --      | 1.036993e+01 |    Inf | unknown
r 1.1s|     1 |     0 |  8959 |     - |simplero|   0 |2827 | 170 | 170 |   0 |  0 |   0 |   0 |      --      | 8.679026e+00 |    Inf | unknown
r 1.1s|     1 |     0 |  8981 |     - |simplero|   0 |2827 | 170 | 170 |   0 |  0 |   0 |   0 |      --      | 8.629965e+00 |    Inf | unknown
r 1.1s|     1 |     0 |  8997 |     - |simplero|   0 |2827 | 170 | 170 |   0 |  0 |   0 |   0 |      --      | 8.614378e+00 |    Inf | unknown
r 1.1s|     1 |     0 |  9005 |     - |simplero|   0 |2827 | 170 | 170 |   0 |  0 |   0 |   0 |      --      | 8.611852e+00 |    Inf | unknown
r 1.1s|     1 |     0 |  9163 |     - |simplero|   0 |2844 | 170 | 170 |   0 |  0 |   0 |   0 |      --      | 7.044509e+00 |    Inf | unknown
r 1.2s|     1 |     0 |  9235 |     - |simplero|   0 |2844 | 170 | 170 |   0 |  0 |   0 |   0 |      --      | 6.741380e+00 |    Inf | unknown
  1.2s|     1 |     0 |  9244 |     - |    14M |   0 |2844 | 170 | 170 |   0 |  0 |   0 |   0 |      --      | 6.741380e+00 |    Inf | unknown
r 1.2s|     1 |     0 |  9244 |     - |simplero|   0 |2844 | 170 | 170 |   0 |  0 |   0 |   0 |      --      | 6.735353e+00 |    Inf | unknown
r 1.2s|     1 |     0 |  9245 |     - |simplero|   0 |2844 | 170 | 170 |   0 |  0 |   0 |   0 |      --      | 6.735273e+00 |    Inf | unknown
r 1.2s|     1 |     0 |  9366 |     - |simplero|   0 |2861 | 170 | 170 |   0 |  0 |   0 |   0 |      --      | 5.736515e+00 |    Inf | unknown
r 1.2s|     1 |     0 |  9455 |     - |simplero|   0 |2861 | 170 | 170 |   0 |  0 |   0 |   0 |      --      | 5.218536e+00 |    Inf | unknown
 time | node  | left  |LP iter|LP it/n|mem/heur|mdpt |vars |cons |rows |cuts |sepa|confs|strbr|  dualbound   | primalbound  |  gap   | compl. 
r 1.2s|     1 |     0 |  9466 |     - |simplero|   0 |2861 | 170 | 170 |   0 |  0 |   0 |   0 |      --      | 5.202661e+00 |    Inf | unknown
r 1.2s|     1 |     0 |  9572 |     - |simplero|   0 |2878 | 170 | 170 |   0 |  0 |   0 |   0 |      --      | 4.097078e+00 |    Inf | unknown
r 1.2s|     1 |     0 |  9591 |     - |simplero|   0 |2878 | 170 | 170 |   0 |  0 |   0 |   0 |      --      | 4.076636e+00 |    Inf | unknown
r 1.2s|     1 |     0 |  9596 |     - |simplero|   0 |2878 | 170 | 170 |   0 |  0 |   0 |   0 |      --      | 4.076266e+00 |    Inf | unknown
r 1.2s|     1 |     0 |  9689 |     - |simplero|   0 |2895 | 170 | 170 |   0 |  0 |   0 |   0 |      --      | 3.353913e+00 |    Inf | unknown
r 1.2s|     1 |     0 |  9730 |     - |simplero|   0 |2895 | 170 | 170 |   0 |  0 |   0 |   0 |      --      | 3.275866e+00 |    Inf | unknown
r 1.3s|     1 |     0 |  9753 |     - |simplero|   0 |2895 | 170 | 170 |   0 |  0 |   0 |   0 |      --      | 3.251264e+00 |    Inf | unknown
r 1.3s|     1 |     0 |  9902 |     - |simplero|   0 |2912 | 170 | 170 |   0 |  0 |   0 |   0 |      --      | 2.039806e+00 |    Inf | unknown
r 1.3s|     1 |     0 |  9916 |     - |simplero|   0 |2912 | 170 | 170 |   0 |  0 |   0 |   0 |      --      | 2.009199e+00 |    Inf | unknown
r 1.3s|     1 |     0 |  9917 |     - |simplero|   0 |2912 | 170 | 170 |   0 |  0 |   0 |   0 |      --      | 2.008900e+00 |    Inf | unknown
r 1.3s|     1 |     0 | 10010 |     - |simplero|   0 |2929 | 170 | 170 |   0 |  0 |   0 |   0 |      --      | 1.361522e+00 |    Inf | unknown
r 1.3s|     1 |     0 | 10045 |     - |simplero|   0 |2929 | 170 | 170 |   0 |  0 |   0 |   0 |      --      | 1.267462e+00 |    Inf | unknown
r 1.3s|     1 |     0 | 10060 |     - |simplero|   0 |2929 | 170 | 170 |   0 |  0 |   0 |   0 |      --      | 1.261344e+00 |    Inf | unknown
r 1.3s|     1 |     0 | 10163 |     - |simplero|   0 |2946 | 170 | 170 |   0 |  0 |   0 |   0 |      --      | 5.055297e-01 |    Inf | unknown
r 1.3s|     1 |     0 | 10202 |     - |simplero|   0 |2946 | 170 | 170 |   0 |  0 |   0 |   0 |      --      | 3.377265e-01 |    Inf | unknown
 time | node  | left  |LP iter|LP it/n|mem/heur|mdpt |vars |cons |rows |cuts |sepa|confs|strbr|  dualbound   | primalbound  |  gap   | compl. 
r 1.3s|     1 |     0 | 10243 |     - |simplero|   0 |2963 | 170 | 170 |   0 |  0 |   0 |   0 |      --      | 1.351756e-01 |    Inf | unknown
r 1.3s|     1 |     0 | 10266 |     - |simplero|   0 |2963 | 170 | 170 |   0 |  0 |   0 |   0 |      --      | 8.927379e-02 |    Inf | unknown
r 1.4s|     1 |     0 | 10285 |     - |simplero|   0 |2980 | 170 | 170 |   0 |  0 |   0 |   0 |      --      | 0.000000e+00 |    Inf | unknown
  1.4s|     1 |     0 | 10285 |     - |    15M |   0 |2980 | 170 | 170 |   0 |  0 |   0 |   0 | 0.000000e+00 | 0.000000e+00 |   0.00%| unknown
  1.4s|     1 |     0 | 10285 |     - |    15M |   0 |2980 | 170 | 170 |   0 |  0 |   0 |   0 | 0.000000e+00 | 0.000000e+00 |   0.00%| unknown

SCIP Status        : problem is solved [optimal solution found]
Solving Time (sec) : 1.36
Solving Nodes      : 1
Primal Bound       : +0.00000000000000e+00 (60 solutions)
Dual Bound         : +0.00000000000000e+00
Gap                : 0.00 %

written transformed problem to file <results_rootrelaxation/bin018_050_002.srr.lp>
written transformed problem to file <results_rootrelaxation/bin018_050_002.srr.cip>

written solution information to file <results_rootrelaxation/bin018_050_002.srr.sol>



